! MP2 TIGHTSCF TIGHTOPT OPT def2-TZVPP 

%MaxCore 100000

* xyz 0 1
C      -0.00000000     -0.80142131      0.00000013
H       0.00000000     -1.41063055     -0.89396835
H      -0.00000000     -1.41062078      0.89397293
Cl      1.46615137      0.17816403     -0.00000009
Cl     -1.46615137      0.17816403     -0.00000009
*

